
(set-logic ALL) 

(declare-datatype MyList ((Nil) (Cons (head Real) (tail MyList)) )) 
(declare-fun l0 () MyList) 
(declare-fun l1 () MyList) 
(declare-fun l2 () MyList) 
(declare-fun l3 () MyList) 
(declare-fun i0 () Real) 
(declare-fun i1 () Real) 
(assert (and (= l2 Nil) (is-Cons l1)) )
(assert (not (= l2 Nil)) )
(assert (or (is-Nil Nil) (= l2 l3) (= l2 Nil) (= l1 l0)) )
(assert (not (= l3 l0)) )
(assert (is-Cons Nil) )
(assert (or (is-Cons Nil) (= l0 l1) (is-Cons Nil)) )
(assert (not (is-Nil Nil)) )
(assert (is-Cons Nil) )
(check-sat)
